Optimizer called with the following parameters:
{'focal_plane_mask': {'field_stop_radius': None,
                      'grayscale': True,
                      'num_pix': 150,
                      'radius': 4.0},
 'image': {'bandwidth': 0.15,
           'contrast': 10,
           'iwa': 3.9,
           'num_wavelengths': 5,
           'owa': 14.0,
           'resolution': 2},
 'instrument': {'inst_name': 'USORT'},
 'lyot_stop': {'alignment_tolerance': 0,
               'filename': 'USORT/LS_USORT_circ_ID0000_OD0990_ovsamp16_N0128.fits',
               'num_lyot_stops': 1},
 'method': {'edge_width_for_prior': 2,
            'ending_scale': 1,
            'force_no_hermitian_symmetry': False,
            'force_no_x_mirror_symmetry': False,
            'force_no_y_mirror_symmetry': False,
            'initial_throughput_estimate': 1,
            'maximize_planet_throughput': True,
            'num_throughput_iterations': 2,
            'starting_scale': 1},
 'pupil': {'N': 128,
           'filename': 'USORT/TelAp_USORT_offaxis_ovsamp16_N0128.fits'},
 'solver': {'crossover': 0,
            'method': 2,
            'num_threads': 0}}

File organization:
{'analysis_dir': '/user/bnickson/GitHub/LUVex_TelAps/aplc_optimization/surveys/usort_offaxis_survey_N0128_telserv3/FPM40_IWA39/analysis',
 'drivers_dir': '/user/bnickson/GitHub/LUVex_TelAps/aplc_optimization/surveys/usort_offaxis_survey_N0128_telserv3/FPM40_IWA39/drivers',
 'input_files_dir': '/user/bnickson/GitHub/LUVex_TelAps/aplc_optimization/masks',
 'log_dir': '/user/bnickson/GitHub/LUVex_TelAps/aplc_optimization/surveys/usort_offaxis_survey_N0128_telserv3/FPM40_IWA39/logs',
 'solution_dir': '/user/bnickson/GitHub/LUVex_TelAps/aplc_optimization/surveys/usort_offaxis_survey_N0128_telserv3/FPM40_IWA39/solutions',
 'survey_dir': '/user/bnickson/GitHub/LUVex_TelAps/aplc_optimization/surveys/usort_offaxis_survey_N0128_telserv3/FPM40_IWA39'}

Telescope pupil:
   Mirror symmetry in x: yes
   Mirror symmetry in y: yes

Lyot stop #0:
   Mirror symmetry in x: yes
Lyot stop #0:
   Mirror symmetry in y: yes

Complete APLC:
   Mirror symmetry in x: yes
   Mirror symmetry in y: yes

Starting optimization at scale 1 with 2726 variables and 2850 constraints.
Creating model...
Set parameter Username
Academic license - for non-commercial use only - expires 2024-10-25
Set parameter Crossover to value 0
Set parameter Method to value 2
Calculating and adding constraints...
Wavelength 1/5; Variable 1000/2726
Wavelength 1/5; Variable 2000/2726
Wavelength 2/5; Variable 1000/2726
Wavelength 2/5; Variable 2000/2726
Wavelength 3/5; Variable 1000/2726
Wavelength 3/5; Variable 2000/2726
Wavelength 4/5; Variable 1000/2726
Wavelength 4/5; Variable 2000/2726
Wavelength 5/5; Variable 1000/2726
Wavelength 5/5; Variable 2000/2726
Start optimization...
Gurobi Optimizer version 10.0.3 build v10.0.3rc0 (linux64)

CPU model: Intel(R) Xeon(R) Gold 6146 CPU @ 3.20GHz, instruction set [SSE2|AVX|AVX2|AVX512]
Thread count: 24 physical cores, 48 logical processors, using up to 24 threads

Optimize a model with 5700 rows, 2726 columns and 15538200 nonzeros
Model fingerprint: 0x08973e2a
Coefficient statistics:
  Matrix range     [1e-13, 5e-04]
  Objective range  [2e-03, 1e+00]
  Bounds range     [1e+00, 1e+00]
  RHS range        [1e-05, 1e-05]
Presolve removed 0 rows and 0 columns (presolve time = 6s) ...
Presolve time: 10.18s
Presolved: 2726 rows, 8426 columns, 15540926 nonzeros
Error: invalid user locale; possible fix is to set the system environment
       variable 'LC_ALL' to a valid locale (e.g., to 'C')
Ordering time: 0.13s

Barrier statistics:
 AA' NZ     : 3.714e+06
 Factor NZ  : 3.717e+06 (roughly 34 MB of memory)
 Factor Ops : 6.756e+09 (less than 1 second per iteration)
 Threads    : 24

                  Objective                Residual
Iter       Primal          Dual         Primal    Dual     Compl     Time
   0   5.48666393e+03  0.00000000e+00  0.00e+00 0.00e+00  9.53e-01    17s
   1   2.93733167e+03  6.07574547e+02  0.00e+00 1.87e-01  3.76e-01    18s
   2   2.07227678e+03  1.38908265e+03  0.00e+00 4.55e-02  9.64e-02    21s
   3   1.71916159e+03  1.44841357e+03  0.00e+00 1.67e-02  3.42e-02    25s
   4   1.66144116e+03  1.45742810e+03  0.00e+00 1.27e-02  2.50e-02    28s
   5   1.63430092e+03  1.46153308e+03  0.00e+00 1.08e-02  2.10e-02    30s
   6   1.59079025e+03  1.46585817e+03  0.00e+00 8.31e-03  1.51e-02    33s
   7   1.55899107e+03  1.46913812e+03  0.00e+00 6.72e-03  1.12e-02    37s
   8   1.54530843e+03  1.47074407e+03  0.00e+00 5.71e-03  9.41e-03    39s
   9   1.53678606e+03  1.47096549e+03  0.00e+00 5.40e-03  8.54e-03    41s
  10   1.52467068e+03  1.47136268e+03  0.00e+00 4.61e-03  7.14e-03    44s
  11   1.51634565e+03  1.47095541e+03  0.00e+00 4.06e-03  6.23e-03    46s
  12   1.50533398e+03  1.47033909e+03  0.00e+00 3.44e-03  5.15e-03    48s
  13   1.49369090e+03  1.47009391e+03  0.00e+00 3.12e-03  4.02e-03    51s
  14   1.48489871e+03  1.46886107e+03  0.00e+00 2.29e-03  2.93e-03    54s
  15   1.47820610e+03  1.46737910e+03  0.00e+00 1.50e-03  1.99e-03    57s
  16   1.47451189e+03  1.46652574e+03  0.00e+00 1.11e-03  1.50e-03    60s
  17   1.47185143e+03  1.46607407e+03  0.00e+00 9.37e-04  1.19e-03    62s
  18   1.46917623e+03  1.46506127e+03  0.00e+00 5.49e-04  7.72e-04    65s
  19   1.46674482e+03  1.46477821e+03  0.00e+00 3.98e-04  4.74e-04    67s
  20   1.46588761e+03  1.46458257e+03  0.00e+00 3.25e-04  3.66e-04    69s
  21   1.46535749e+03  1.46428476e+03  0.00e+00 2.23e-04  2.69e-04    71s
  22   1.46478541e+03  1.46404686e+03  0.00e+00 1.40e-04  1.75e-04    73s
  23   1.46418422e+03  1.46394828e+03  0.00e+00 9.87e-05  9.88e-05    75s
  24   1.46399733e+03  1.46386591e+03  0.00e+00 7.13e-05  6.81e-05    77s
  25   1.46386713e+03  1.46375926e+03  0.00e+00 3.51e-05  3.74e-05    80s
  26   1.46381336e+03  1.46369009e+03  0.00e+00 1.18e-05  2.04e-05    84s
  27   1.46376817e+03  1.46366932e+03  0.00e+00 4.84e-06  1.27e-05    86s
  28   1.46368416e+03  1.46366347e+03  0.00e+00 2.25e-06  3.64e-06    89s
  29   1.46366987e+03  1.46366048e+03  0.00e+00 8.52e-07  1.52e-06    94s
  30   1.46366986e+03  1.46366042e+03  2.56e-07 8.28e-07  1.50e-06    98s
  31   1.46366950e+03  1.46365795e+03  7.36e-07 1.29e-07  1.14e-06   108s
  32   1.46366919e+03  1.46365813e+03  1.57e-06 1.11e-07  1.08e-06   113s
  33   1.46366824e+03  1.46365821e+03  2.31e-06 9.83e-08  9.78e-07   118s
  34   1.46366807e+03  1.46365829e+03  4.06e-06 8.08e-08  9.44e-07   120s
  35   1.46366802e+03  1.46365837e+03  5.25e-06 6.65e-08  9.22e-07   121s
  36   1.46366773e+03  1.46365847e+03  7.18e-06 4.70e-08  8.65e-07   122s
  37   1.46366755e+03  1.46365855e+03  7.05e-06 3.56e-08  8.31e-07   124s
  38   1.46366710e+03  1.46365870e+03  1.21e-05 4.20e-09  7.49e-07   126s
  39   1.46366714e+03  1.46365870e+03  2.17e-05 4.19e-09  7.49e-07   127s
  40   1.46366599e+03  1.46365870e+03  3.47e-05 3.23e-09  6.49e-07   128s
  41   1.46366321e+03  1.46365875e+03  4.03e-05 8.96e-10  3.98e-07   129s
  42   1.46366145e+03  1.46365876e+03  4.77e-05 2.47e-10  2.24e-07   130s
  43   1.46366082e+03  1.46365876e+03  3.94e-05 1.50e-10  1.68e-07   130s
  44   1.46366065e+03  1.46365876e+03  5.65e-05 1.24e-10  1.28e-07   131s
  45   1.46366060e+03  1.46365877e+03  7.37e-05 6.27e-11  9.49e-08   132s
  46   1.46366073e+03  1.46365877e+03  7.54e-05 3.11e-11  7.88e-08   133s
  47   1.46366069e+03  1.46365877e+03  7.64e-05 2.23e-11  6.34e-08   133s
  48   1.46365996e+03  1.46365877e+03  7.56e-05 1.18e-11  4.31e-08   134s
  49   1.46365996e+03  1.46365877e+03  7.59e-05 1.18e-11  4.31e-08   135s
  50   1.46365986e+03  1.46365877e+03  5.57e-05 1.06e-11  3.87e-08   136s
  51   1.46365994e+03  1.46365877e+03  5.39e-05 1.05e-11  3.86e-08   137s
  52   1.46365898e+03  1.46365872e+03  1.07e-04 6.60e-13  3.23e-08   138s
  53   1.46365926e+03  1.46365873e+03  9.87e-05 5.75e-13  2.99e-08   139s
  54   1.46365919e+03  1.46365873e+03  9.43e-05 8.75e-13  2.41e-08   140s
  55   1.46365946e+03  1.46365875e+03  8.38e-05 6.70e-13  1.78e-08   141s
  56   1.46365974e+03  1.46365875e+03  8.41e-05 4.53e-13  1.74e-08   142s
  57   1.46365985e+03  1.46365875e+03  1.03e-04 5.98e-13  1.74e-08   143s
  58   1.46365923e+03  1.46365875e+03  1.16e-04 3.39e-13  1.61e-08   144s
  59   1.46365896e+03  1.46365876e+03  1.04e-04 6.29e-13  1.42e-08   145s
  60   1.46365898e+03  1.46365876e+03  1.07e-04 5.47e-13  1.29e-08   145s
  61   1.46365889e+03  1.46365876e+03  9.41e-05 5.62e-13  1.28e-08   146s
  62   1.46366039e+03  1.46365876e+03  1.10e-04 6.92e-13  1.01e-08   147s
  63   1.46366049e+03  1.46365877e+03  1.02e-04 5.39e-13  7.86e-09   147s
  64   1.46365985e+03  1.46365877e+03  8.85e-05 5.26e-13  6.62e-09   148s
  65   1.46365896e+03  1.46365877e+03  1.18e-04 6.58e-13  7.74e-10   150s
  66   1.46365873e+03  1.46365877e+03  8.89e-05 4.86e-13  6.02e-10   151s
  67   1.46365896e+03  1.46365877e+03  1.04e-04 6.14e-13  6.35e-10   152s
  68   1.46365921e+03  1.46365877e+03  1.09e-04 6.75e-13  5.75e-10   153s
  69   1.46365933e+03  1.46365877e+03  1.08e-04 5.73e-13  4.20e-10   154s
  70   1.46365926e+03  1.46365877e+03  1.08e-04 5.72e-13  3.52e-10   155s
  71   1.46365859e+03  1.46365877e+03  1.03e-04 6.75e-13  1.46e-10   156s
  72   1.46365873e+03  1.46365878e+03  1.21e-04 9.83e-13  1.28e-10   157s
  73   1.46365874e+03  1.46365878e+03  1.07e-04 1.12e-12  1.96e-10   158s
  74   1.46365849e+03  1.46365878e+03  1.17e-04 1.12e-12  1.67e-10   159s
  75   1.46365927e+03  1.46365878e+03  1.22e-04 7.16e-13  1.45e-10   164s
  76   1.46365940e+03  1.46365878e+03  1.42e-04 6.27e-13  1.17e-10   168s
  77   1.46365904e+03  1.46365878e+03  1.04e-04 6.09e-13  2.22e-11   171s
  78   1.46365901e+03  1.46365878e+03  9.76e-05 5.14e-13  2.00e-11   173s
  79   1.46365865e+03  1.46365878e+03  9.22e-05 3.72e-13  1.82e-11   176s
  80   1.46365854e+03  1.46365878e+03  9.04e-05 4.51e-13  1.40e-11   179s
  81   1.46365854e+03  1.46365878e+03  8.97e-05 4.48e-13  8.20e-12   183s
  82   1.46365791e+03  1.46365878e+03  2.28e-04 8.80e-13  2.54e-11   189s

Barrier performed 82 iterations in 188.61 seconds (53.09 work units)
Sub-optimal termination - objective 1.46366950e+03

Optimization finished!
Restarting optimization for throughput iteration 1...
Gurobi Optimizer version 10.0.3 build v10.0.3rc0 (linux64)

CPU model: Intel(R) Xeon(R) Gold 6146 CPU @ 3.20GHz, instruction set [SSE2|AVX|AVX2|AVX512]
Thread count: 24 physical cores, 48 logical processors, using up to 24 threads

Optimize a model with 5700 rows, 2726 columns and 15538200 nonzeros
Model fingerprint: 0x8f85cdb2
Coefficient statistics:
  Matrix range     [1e-13, 5e-04]
  Objective range  [2e-03, 1e+00]
  Bounds range     [1e+00, 1e+00]
  RHS range        [7e-06, 7e-06]
Presolve removed 0 rows and 0 columns (presolve time = 7s) ...
Presolve time: 8.25s
Presolved: 2726 rows, 8426 columns, 15540926 nonzeros
Ordering time: 0.10s

Barrier statistics:
 AA' NZ     : 3.714e+06
 Factor NZ  : 3.717e+06 (roughly 34 MB of memory)
 Factor Ops : 6.756e+09 (less than 1 second per iteration)
 Threads    : 24

                  Objective                Residual
Iter       Primal          Dual         Primal    Dual     Compl     Time
   0   5.43787199e+03  0.00000000e+00  0.00e+00 0.00e+00  9.48e-01    12s
   1   2.89120015e+03  6.05361475e+02  0.00e+00 1.87e-01  3.74e-01    12s
   2   2.03165604e+03  1.37664644e+03  0.00e+00 4.70e-02  9.69e-02    13s
   3   1.73479382e+03  1.43053453e+03  0.00e+00 2.24e-02  4.28e-02    14s
   4   1.69658292e+03  1.44289177e+03  0.00e+00 1.78e-02  3.43e-02    14s
   5   1.66066691e+03  1.44616731e+03  0.00e+00 1.61e-02  2.93e-02    15s
   6   1.59470227e+03  1.45052420e+03  0.00e+00 1.39e-02  2.13e-02    16s
   7   1.55272062e+03  1.45169044e+03  0.00e+00 1.27e-02  1.76e-02    17s
   8   1.53649759e+03  1.45233048e+03  0.00e+00 1.14e-02  1.57e-02    17s
   9   1.51472664e+03  1.45206975e+03  0.00e+00 1.03e-02  1.36e-02    18s
  10   1.49801975e+03  1.45127668e+03  0.00e+00 9.65e-03  1.22e-02    20s
  11   1.49205983e+03  1.44877657e+03  0.00e+00 8.41e-03  1.09e-02    21s
  12   1.47769132e+03  1.44677503e+03  0.00e+00 7.93e-03  9.79e-03    21s
  13   1.47026056e+03  1.44530134e+03  0.00e+00 7.51e-03  9.15e-03    22s
  14   1.45959438e+03  1.44278557e+03  0.00e+00 6.72e-03  8.17e-03    23s
  15   1.45716080e+03  1.44226056e+03  0.00e+00 6.59e-03  7.96e-03    23s
  16   1.44600161e+03  1.43961982e+03  0.00e+00 5.94e-03  6.98e-03    24s
  17   1.44262640e+03  1.43866959e+03  0.00e+00 5.76e-03  6.72e-03    24s
  18   1.43171256e+03  1.43567128e+03  0.00e+00 5.20e-03  5.90e-03    25s
  19   1.42133169e+03  1.43109193e+03  0.00e+00 4.53e-03  5.00e-03    26s
  20   1.42002613e+03  1.42984702e+03  0.00e+00 4.38e-03  4.86e-03    27s
  21   1.41706426e+03  1.42871955e+03  0.00e+00 4.25e-03  4.64e-03    27s
  22   1.41479458e+03  1.42832301e+03  0.00e+00 4.21e-03  4.53e-03    29s
  23   1.41249219e+03  1.42568113e+03  0.00e+00 3.92e-03  4.26e-03    30s
  24   1.40313242e+03  1.42092557e+03  0.00e+00 3.42e-03  3.51e-03    30s
  25   1.40096272e+03  1.41605006e+03  0.00e+00 2.96e-03  3.14e-03    31s
  26   1.39921272e+03  1.41566370e+03  0.00e+00 2.93e-03  3.02e-03    32s
  27   1.39790953e+03  1.41463408e+03  0.00e+00 2.84e-03  2.89e-03    33s
  28   1.39453923e+03  1.41274328e+03  0.00e+00 2.68e-03  2.61e-03    33s
  29   1.39340004e+03  1.41153673e+03  0.00e+00 2.59e-03  2.51e-03    34s
  30   1.38988116e+03  1.40914221e+03  0.00e+00 2.41e-03  2.18e-03    34s
  31   1.38669257e+03  1.40692064e+03  0.00e+00 2.22e-03  1.90e-03    36s
  32   1.38341864e+03  1.40401730e+03  0.00e+00 2.01e-03  1.60e-03    37s
  33   1.38214735e+03  1.40180672e+03  0.00e+00 1.86e-03  1.47e-03    37s
  34   1.38027242e+03  1.39884240e+03  0.00e+00 1.64e-03  1.27e-03    38s
  35   1.37877618e+03  1.39638658e+03  0.00e+00 1.46e-03  1.11e-03    38s
  36   1.37779512e+03  1.39328401e+03  0.00e+00 1.25e-03  9.58e-04    39s
  37   1.37671956e+03  1.38945750e+03  0.00e+00 1.00e-03  7.88e-04    40s
  38   1.37560071e+03  1.38647850e+03  0.00e+00 8.25e-04  6.59e-04    40s
  39   1.37477096e+03  1.38548358e+03  0.00e+00 7.68e-04  5.90e-04    41s
  40   1.37471232e+03  1.38504520e+03  0.00e+00 7.43e-04  5.72e-04    42s
  41   1.37434545e+03  1.38423973e+03  0.00e+00 6.99e-04  5.31e-04    44s
  42   1.37386062e+03  1.38304709e+03  0.00e+00 6.33e-04  4.81e-04    45s
  43   1.37319456e+03  1.38122358e+03  0.00e+00 5.34e-04  4.10e-04    48s
  44   1.37226701e+03  1.37998279e+03  0.00e+00 4.66e-04  3.20e-04    50s
  45   1.37183233e+03  1.37884447e+03  8.94e-06 4.07e-04  2.72e-04    52s
  46   1.37155277e+03  1.37803016e+03  0.00e+00 3.65e-04  2.41e-04    54s
  47   1.37144194e+03  1.37694798e+03  0.00e+00 3.10e-04  2.11e-04    56s
  48   1.37136078e+03  1.37630117e+03  0.00e+00 2.79e-04  1.93e-04    59s
  49   1.37117738e+03  1.37567380e+03  0.00e+00 2.48e-04  1.69e-04    61s
  50   1.37085769e+03  1.37528711e+03  6.29e-06 2.30e-04  1.42e-04    66s
  51   1.37071183e+03  1.37447450e+03  9.73e-06 1.92e-04  1.17e-04    69s
  52   1.37069450e+03  1.37400855e+03  8.85e-06 1.71e-04  1.09e-04    72s
  53   1.37059820e+03  1.37366799e+03  1.10e-05 1.55e-04  9.57e-05    75s
  54   1.37049871e+03  1.37255879e+03  1.52e-05 1.05e-04  6.79e-05    80s
  55   1.37039784e+03  1.37226234e+03  1.67e-05 9.15e-05  5.52e-05    84s
  56   1.37036069e+03  1.37213359e+03  1.35e-05 8.58e-05  5.09e-05    89s
  57   1.37035090e+03  1.37206020e+03  1.34e-05 8.27e-05  4.92e-05    93s
  58   1.37030869e+03  1.37185623e+03  8.85e-06 7.37e-05  4.29e-05    97s
  59   1.37027390e+03  1.37164096e+03  5.63e-06 6.42e-05  3.70e-05   103s
  60   1.37024079e+03  1.37147891e+03  6.14e-06 5.75e-05  3.32e-05   109s
  61   1.37019987e+03  1.37118262e+03  1.14e-05 4.53e-05  2.63e-05   113s
  62   1.37018849e+03  1.37091714e+03  2.41e-05 3.43e-05  2.13e-05   117s
  63   1.37015588e+03  1.37063906e+03  2.19e-05 2.27e-05  1.41e-05   122s
  64   1.37014665e+03  1.37052103e+03  5.12e-05 1.78e-05  1.14e-05   126s
  65   1.37013226e+03  1.37048394e+03  5.97e-05 1.62e-05  9.56e-06   131s
  66   1.37012886e+03  1.37041967e+03  7.60e-05 1.35e-05  8.22e-06   135s
  67   1.37012611e+03  1.37034515e+03  9.08e-05 1.04e-05  6.83e-06   137s
  68   1.37012430e+03  1.37033480e+03  1.23e-04 9.99e-06  6.51e-06   141s
  69   1.37012369e+03  1.37032987e+03  1.56e-04 9.79e-06  6.36e-06   143s
  70   1.37012044e+03  1.37029701e+03  1.60e-04 8.43e-06  5.57e-06   147s
  71   1.37011374e+03  1.37022256e+03  1.90e-04 5.35e-06  3.95e-06   152s
  72   1.37011109e+03  1.37020656e+03  1.87e-04 4.68e-06  3.43e-06   156s
  73   1.37010923e+03  1.37019887e+03  1.78e-04 4.36e-06  3.16e-06   158s
  74   1.37010828e+03  1.37019795e+03  1.70e-04 4.33e-06  3.10e-06   162s
  75   1.37010873e+03  1.37019794e+03  2.02e-04 4.33e-06  3.10e-06   164s
  76   1.37010727e+03  1.37017699e+03  2.12e-04 3.46e-06  2.71e-06   168s
  77   1.37010762e+03  1.37017695e+03  2.32e-04 3.46e-06  2.44e-06   171s
  78   1.37010784e+03  1.37016914e+03  2.24e-04 3.14e-06  2.33e-06   175s
  79   1.37010744e+03  1.37016620e+03  2.28e-04 3.02e-06  2.24e-06   177s
  80   1.37010575e+03  1.37016437e+03  2.70e-04 2.94e-06  2.18e-06   180s
  81   1.37010432e+03  1.37016084e+03  1.99e-04 2.80e-06  2.01e-06   184s
  82   1.37010356e+03  1.37015881e+03  2.05e-04 2.71e-06  1.95e-06   188s
  83   1.37010303e+03  1.37015879e+03  2.11e-04 2.71e-06  1.94e-06   191s
  84   1.37010296e+03  1.37015868e+03  2.04e-04 2.71e-06  1.93e-06   194s
  85   1.37010326e+03  1.37015780e+03  1.75e-04 2.67e-06  1.87e-06   198s
  86   1.37010352e+03  1.37014679e+03  2.41e-04 2.21e-06  1.58e-06   203s
  87   1.37010346e+03  1.37014452e+03  2.43e-04 2.12e-06  1.53e-06   206s
  88   1.37010298e+03  1.37014227e+03  2.49e-04 2.03e-06  1.46e-06   211s
  89   1.37010202e+03  1.37014226e+03  2.57e-04 2.02e-06  1.46e-06   214s
  90   1.37010082e+03  1.37012529e+03  2.43e-04 1.33e-06  1.13e-06   219s
  91   1.37010008e+03  1.37011995e+03  2.71e-04 1.11e-06  9.88e-07   223s
  92   1.37009912e+03  1.37011829e+03  3.26e-04 1.04e-06  9.46e-07   225s
  93   1.37009888e+03  1.37011713e+03  3.00e-04 9.92e-07  9.05e-07   228s
  94   1.37009908e+03  1.37011615e+03  2.93e-04 9.52e-07  8.79e-07   230s
  95   1.37009916e+03  1.37011609e+03  2.94e-04 9.49e-07  8.77e-07   233s
  96   1.37009888e+03  1.37011534e+03  2.88e-04 9.18e-07  8.46e-07   235s
  97   1.37009834e+03  1.37011417e+03  2.99e-04 8.70e-07  8.13e-07   239s
  98   1.37009895e+03  1.37011405e+03  2.84e-04 8.65e-07  8.08e-07   243s
  99   1.37009905e+03  1.37011322e+03  2.97e-04 8.31e-07  7.73e-07   247s
 100   1.37009891e+03  1.37011262e+03  2.68e-04 8.07e-07  7.43e-07   250s
 101   1.37009873e+03  1.37011215e+03  2.68e-04 7.88e-07  7.33e-07   254s
 102   1.37009875e+03  1.37011214e+03  2.71e-04 7.87e-07  7.33e-07   258s
 103   1.37009823e+03  1.37010796e+03  2.46e-04 6.15e-07  6.23e-07   264s
 104   1.37009738e+03  1.37010794e+03  2.25e-04 6.14e-07  6.19e-07   269s
 105   1.37009701e+03  1.37010779e+03  2.18e-04 6.08e-07  6.11e-07   272s
 106   1.37009709e+03  1.37010759e+03  2.16e-04 5.99e-07  6.07e-07   276s
 107   1.37009707e+03  1.37010736e+03  2.07e-04 5.90e-07  5.96e-07   279s
 108   1.37009676e+03  1.37010718e+03  2.07e-04 5.83e-07  5.91e-07   284s
 109   1.37009656e+03  1.37010716e+03  2.08e-04 5.82e-07  5.91e-07   287s
 110   1.37009802e+03  1.37010705e+03  2.75e-04 5.77e-07  5.78e-07   289s
 111   1.37009657e+03  1.37010653e+03  2.87e-04 5.55e-07  5.55e-07   290s
 112   1.37009627e+03  1.37010539e+03  3.75e-04 5.09e-07  5.25e-07   292s
 113   1.37009660e+03  1.37010497e+03  3.49e-04 4.91e-07  5.10e-07   293s
 114   1.37009670e+03  1.37010498e+03  3.58e-04 4.91e-07  5.10e-07   294s
 115   1.37009662e+03  1.37010461e+03  3.38e-04 4.76e-07  4.64e-07   295s
 116   1.37009585e+03  1.37010454e+03  3.48e-04 4.73e-07  4.55e-07   296s
 117   1.37009546e+03  1.37010454e+03  3.45e-04 4.73e-07  4.55e-07   297s
 118   1.37009457e+03  1.37010451e+03  3.51e-04 4.72e-07  4.50e-07   298s
 119   1.37009458e+03  1.37010450e+03  3.69e-04 4.72e-07  4.49e-07   299s
 120   1.37009492e+03  1.37010421e+03  3.52e-04 4.60e-07  4.39e-07   300s
 121   1.37009380e+03  1.37010390e+03  3.24e-04 4.47e-07  4.16e-07   301s
 122   1.37009298e+03  1.37010322e+03  4.30e-04 4.19e-07  3.85e-07   302s
 123   1.37009283e+03  1.37010266e+03  4.35e-04 3.96e-07  3.75e-07   303s
 124   1.37009343e+03  1.37010266e+03  4.31e-04 3.96e-07  3.75e-07   304s
 125   1.37009332e+03  1.37010254e+03  4.02e-04 3.91e-07  3.65e-07   305s
 126   1.37009347e+03  1.37010249e+03  4.09e-04 3.89e-07  3.61e-07   306s
 127   1.37009289e+03  1.37010216e+03  4.07e-04 3.75e-07  3.51e-07   307s
 128   1.37009285e+03  1.37010203e+03  4.00e-04 3.70e-07  3.48e-07   308s
 129   1.37009247e+03  1.37010182e+03  4.30e-04 3.61e-07  3.34e-07   309s
 130   1.37009252e+03  1.37010182e+03  4.23e-04 3.61e-07  3.34e-07   310s
 131   1.37009260e+03  1.37010151e+03  4.24e-04 3.48e-07  3.27e-07   311s
 132   1.37009177e+03  1.37010119e+03  3.97e-04 3.35e-07  3.10e-07   312s
 133   1.37009179e+03  1.37010117e+03  3.91e-04 3.34e-07  3.07e-07   313s
 134   1.37009189e+03  1.37010107e+03  3.69e-04 3.30e-07  3.02e-07   314s
 135   1.37009211e+03  1.37010092e+03  3.32e-04 3.24e-07  2.96e-07   315s
 136   1.37009214e+03  1.37010067e+03  3.63e-04 3.14e-07  2.91e-07   316s
 137   1.37009217e+03  1.37009976e+03  3.60e-04 2.76e-07  2.54e-07   317s
 138   1.37009214e+03  1.37009967e+03  3.58e-04 2.73e-07  2.52e-07   318s
 139   1.37009463e+03  1.37009966e+03  3.88e-04 2.72e-07  2.52e-07   319s
 140   1.37009507e+03  1.37009966e+03  3.61e-04 2.72e-07  2.52e-07   319s
 141   1.37009467e+03  1.37009861e+03  2.62e-04 2.29e-07  2.06e-07   322s
 142   1.37009444e+03  1.37009800e+03  2.98e-04 2.04e-07  1.88e-07   325s
 143   1.37009503e+03  1.37009799e+03  2.79e-04 2.04e-07  1.86e-07   328s
 144   1.37009346e+03  1.37009603e+03  2.65e-04 1.23e-07  1.43e-07   330s
 145   1.37009390e+03  1.37009599e+03  2.70e-04 1.22e-07  1.41e-07   332s
 146   1.37009414e+03  1.37009590e+03  2.84e-04 1.18e-07  1.37e-07   334s
 147   1.37009446e+03  1.37009574e+03  2.74e-04 1.12e-07  1.30e-07   336s
 148   1.37009438e+03  1.37009570e+03  2.68e-04 1.10e-07  1.26e-07   339s
 149   1.37009494e+03  1.37009564e+03  2.64e-04 1.07e-07  1.21e-07   340s
 150   1.37009545e+03  1.37009556e+03  2.90e-04 1.04e-07  1.15e-07   343s
 151   1.37009629e+03  1.37009552e+03  2.82e-04 1.02e-07  1.13e-07   344s
 152   1.37009640e+03  1.37009523e+03  2.76e-04 9.02e-08  1.07e-07   345s
 153   1.37009646e+03  1.37009523e+03  2.82e-04 9.01e-08  1.07e-07   347s
 154   1.37009614e+03  1.37009504e+03  2.67e-04 8.23e-08  1.02e-07   349s
 155   1.37009629e+03  1.37009504e+03  2.70e-04 8.22e-08  1.02e-07   350s
 156   1.37009716e+03  1.37009504e+03  2.82e-04 8.22e-08  1.02e-07   351s
 157   1.37009715e+03  1.37009502e+03  2.95e-04 8.14e-08  1.01e-07   354s
 158   1.37009714e+03  1.37009499e+03  2.89e-04 8.05e-08  1.00e-07   356s
 159   1.37009728e+03  1.37009499e+03  2.88e-04 8.05e-08  1.00e-07   358s
 160   1.37009707e+03  1.37009497e+03  2.95e-04 7.94e-08  9.82e-08   361s
 161   1.37009643e+03  1.37009496e+03  2.87e-04 7.90e-08  9.71e-08   365s
 162   1.37009615e+03  1.37009484e+03  2.92e-04 7.42e-08  9.26e-08   367s
 163   1.37009613e+03  1.37009482e+03  2.95e-04 7.36e-08  9.22e-08   369s
 164   1.37009603e+03  1.37009481e+03  3.02e-04 7.33e-08  9.19e-08   371s
 165   1.37009602e+03  1.37009481e+03  3.04e-04 7.33e-08  9.19e-08   373s
 166   1.37009598e+03  1.37009481e+03  3.19e-04 7.33e-08  9.13e-08   374s
 167   1.37009606e+03  1.37009469e+03  4.74e-04 6.81e-08  7.83e-08   377s
 168   1.37009660e+03  1.37009457e+03  5.23e-04 6.34e-08  7.44e-08   379s
 169   1.37009533e+03  1.37009450e+03  4.35e-04 6.05e-08  6.81e-08   381s
 170   1.37009519e+03  1.37009436e+03  4.32e-04 5.46e-08  6.51e-08   383s
 171   1.37009364e+03  1.37009426e+03  4.25e-04 5.08e-08  5.51e-08   384s
 172   1.37009348e+03  1.37009426e+03  4.47e-04 5.08e-08  5.51e-08   385s
 173   1.37009171e+03  1.37009370e+03  3.44e-04 2.77e-08  4.32e-08   387s
 174   1.37009228e+03  1.37009370e+03  3.71e-04 2.77e-08  4.32e-08   388s
 175   1.37009194e+03  1.37009364e+03  3.56e-04 2.44e-08  3.80e-08   389s
 176   1.37009185e+03  1.37009360e+03  3.46e-04 2.30e-08  3.73e-08   390s
 177   1.37009166e+03  1.37009359e+03  3.65e-04 2.25e-08  3.63e-08   391s
 178   1.37009165e+03  1.37009359e+03  3.65e-04 2.24e-08  3.63e-08   391s
 179   1.37009214e+03  1.37009355e+03  3.64e-04 2.12e-08  3.40e-08   392s
 180   1.37009222e+03  1.37009355e+03  3.63e-04 2.12e-08  3.40e-08   393s
 181   1.37009242e+03  1.37009354e+03  3.31e-04 2.05e-08  3.12e-08   394s
 182   1.37009245e+03  1.37009352e+03  3.30e-04 1.96e-08  3.08e-08   394s
 183   1.37009116e+03  1.37009350e+03  2.51e-04 1.88e-08  2.95e-08   395s
 184   1.37008852e+03  1.37009343e+03  2.62e-04 1.60e-08  2.41e-08   396s
 185   1.37008854e+03  1.37009343e+03  2.65e-04 1.58e-08  2.40e-08   397s
 186   1.37008861e+03  1.37009343e+03  2.69e-04 1.58e-08  2.40e-08   397s
 187   1.37008812e+03  1.37009343e+03  2.67e-04 1.58e-08  2.40e-08   398s
 188   1.37008812e+03  1.37009343e+03  2.68e-04 1.58e-08  2.40e-08   399s
 189   1.37008820e+03  1.37009343e+03  2.61e-04 1.57e-08  2.36e-08   400s
 190   1.37008832e+03  1.37009337e+03  4.26e-04 1.32e-08  1.91e-08   403s
 191   1.37008865e+03  1.37009337e+03  4.31e-04 1.32e-08  1.90e-08   404s
 192   1.37008777e+03  1.37009337e+03  4.33e-04 1.32e-08  1.90e-08   405s
 193   1.37008834e+03  1.37009337e+03  4.77e-04 1.31e-08  1.88e-08   406s
 194   1.37008836e+03  1.37009334e+03  4.04e-04 1.17e-08  1.66e-08   407s
 195   1.37008856e+03  1.37009332e+03  4.06e-04 1.07e-08  1.54e-08   409s
 196   1.37008856e+03  1.37009332e+03  4.11e-04 1.06e-08  1.53e-08   409s
 197   1.37008769e+03  1.37009332e+03  4.11e-04 1.06e-08  1.51e-08   410s
 198   1.37008765e+03  1.37009332e+03  3.94e-04 1.06e-08  1.51e-08   411s
 199   1.37009041e+03  1.37009328e+03  3.47e-04 9.57e-09  1.31e-08   413s
 200   1.37008948e+03  1.37009327e+03  4.69e-04 9.21e-09  1.22e-08   414s
 201   1.37008956e+03  1.37009327e+03  4.74e-04 9.20e-09  1.22e-08   415s
 202   1.37008790e+03  1.37009326e+03  4.48e-04 9.04e-09  1.20e-08   416s
 203   1.37008771e+03  1.37009326e+03  4.52e-04 8.88e-09  1.16e-08   417s
 204   1.37008872e+03  1.37009324e+03  4.15e-04 7.59e-09  9.88e-09   419s
 205   1.37008875e+03  1.37009323e+03  4.13e-04 7.24e-09  9.73e-09   420s
 206   1.37008874e+03  1.37009321e+03  3.92e-04 6.74e-09  9.08e-09   421s
 207   1.37008745e+03  1.37009321e+03  3.76e-04 6.18e-09  8.62e-09   422s
 208   1.37008772e+03  1.37009320e+03  3.58e-04 5.97e-09  8.39e-09   423s
 209   1.37008758e+03  1.37009320e+03  3.73e-04 5.96e-09  8.37e-09   424s
 210   1.37008758e+03  1.37009320e+03  3.71e-04 5.96e-09  8.37e-09   424s
 211   1.37008870e+03  1.37009321e+03  3.59e-04 5.91e-09  8.30e-09   425s
 212   1.37008844e+03  1.37009320e+03  3.35e-04 5.85e-09  8.16e-09   427s
 213   1.37008848e+03  1.37009320e+03  3.29e-04 5.85e-09  8.16e-09   431s
 214   1.37009057e+03  1.37009319e+03  3.11e-04 5.25e-09  7.17e-09   435s
 215   1.37008867e+03  1.37009319e+03  4.15e-04 5.08e-09  6.34e-09   442s
 216   1.37008921e+03  1.37009318e+03  3.66e-04 4.87e-09  5.97e-09   449s
 217   1.37008947e+03  1.37009318e+03  3.06e-04 4.81e-09  5.55e-09   453s
 218   1.37008947e+03  1.37009318e+03  3.16e-04 4.77e-09  5.49e-09   457s
 219   1.37008898e+03  1.37009316e+03  3.06e-04 4.46e-09  5.26e-09   462s
 220   1.37008897e+03  1.37009316e+03  3.05e-04 4.23e-09  5.17e-09   466s
 221   1.37008920e+03  1.37009316e+03  2.89e-04 4.21e-09  5.08e-09   469s
 222   1.37008898e+03  1.37009316e+03  2.78e-04 4.13e-09  4.93e-09   473s
 223   1.37008931e+03  1.37009316e+03  2.67e-04 4.10e-09  4.78e-09   477s
 224   1.37008926e+03  1.37009316e+03  2.58e-04 4.10e-09  4.75e-09   480s
 225   1.37009147e+03  1.37009314e+03  2.40e-04 3.77e-09  4.56e-09   483s
 226   1.37009148e+03  1.37009314e+03  2.37e-04 3.64e-09  4.54e-09   486s
 227   1.37009206e+03  1.37009314e+03  2.90e-04 3.62e-09  4.37e-09   490s
 228   1.37009244e+03  1.37009314e+03  2.81e-04 3.62e-09  4.37e-09   493s
 229   1.37009243e+03  1.37009314e+03  2.81e-04 3.61e-09  4.33e-09   496s
 230   1.37009359e+03  1.37009314e+03  2.55e-04 3.49e-09  4.11e-09   499s
 231   1.37009408e+03  1.37009314e+03  2.50e-04 3.45e-09  4.07e-09   503s
 232   1.37009396e+03  1.37009314e+03  2.43e-04 3.41e-09  4.01e-09   505s
 233   1.37009397e+03  1.37009314e+03  2.50e-04 3.41e-09  4.01e-09   508s
 234   1.37009395e+03  1.37009314e+03  2.51e-04 3.41e-09  4.01e-09   512s
 235   1.37009277e+03  1.37009314e+03  1.94e-04 3.38e-09  3.55e-09   517s
 236   1.37009278e+03  1.37009314e+03  1.92e-04 3.24e-09  3.44e-09   522s
 237   1.37009360e+03  1.37009314e+03  2.05e-04 3.21e-09  3.35e-09   527s
 238   1.37009374e+03  1.37009313e+03  2.29e-04 2.98e-09  3.24e-09   537s
 239   1.37009377e+03  1.37009313e+03  2.25e-04 2.98e-09  3.23e-09   541s
 240   1.37009366e+03  1.37009313e+03  1.99e-04 2.86e-09  3.08e-09   545s
 241   1.37009365e+03  1.37009313e+03  2.03e-04 2.75e-09  3.00e-09   547s
 242   1.37009377e+03  1.37009313e+03  2.05e-04 2.73e-09  2.99e-09   551s
 243   1.37009371e+03  1.37009313e+03  2.20e-04 2.73e-09  3.00e-09   555s
 244   1.37009361e+03  1.37009313e+03  2.13e-04 2.56e-09  2.92e-09   558s
 245   1.37009363e+03  1.37009312e+03  2.13e-04 2.33e-09  2.83e-09   562s
 246   1.37009406e+03  1.37009312e+03  2.22e-04 2.33e-09  2.81e-09   565s
 247   1.37009472e+03  1.37009312e+03  2.46e-04 2.31e-09  2.78e-09   568s
 248   1.37009435e+03  1.37009312e+03  2.39e-04 2.28e-09  2.72e-09   572s
 249   1.37009504e+03  1.37009312e+03  2.56e-04 2.25e-09  2.53e-09   576s
 250   1.37009503e+03  1.37009312e+03  2.57e-04 2.25e-09  2.53e-09   580s
 251   1.37009532e+03  1.37009312e+03  2.38e-04 2.21e-09  2.49e-09   584s
 252   1.37009528e+03  1.37009312e+03  2.36e-04 2.21e-09  2.47e-09   588s
 253   1.37009443e+03  1.37009311e+03  3.11e-04 2.21e-09  2.43e-09   591s
 254   1.37009185e+03  1.37009311e+03  8.93e-04 2.21e-09  2.43e-09   595s
 255   1.37009166e+03  1.37009311e+03  8.84e-04 2.20e-09  2.42e-09   599s
 256   1.37009134e+03  1.37009310e+03  8.34e-04 2.02e-09  2.21e-09   614s
 257   1.37009138e+03  1.37009310e+03  8.34e-04 2.02e-09  2.21e-09   619s
 258   1.37009120e+03  1.37009310e+03  8.39e-04 2.01e-09  2.19e-09   623s
 259   1.37009150e+03  1.37009310e+03  8.35e-04 2.00e-09  2.19e-09   627s
 260   1.37009138e+03  1.37009309e+03  8.01e-04 1.95e-09  2.20e-09   637s
 261   1.37009139e+03  1.37009309e+03  7.99e-04 1.95e-09  2.24e-09   642s
 262   1.37009155e+03  1.37009309e+03  7.79e-04 1.87e-09  2.15e-09   645s
 263   1.37009158e+03  1.37009309e+03  7.55e-04 1.87e-09  2.15e-09   647s
 264   1.37009160e+03  1.37009309e+03  7.55e-04 1.87e-09  2.16e-09   648s
 265   1.37009162e+03  1.37009309e+03  7.55e-04 1.86e-09  2.17e-09   650s
 266   1.37009123e+03  1.37009309e+03  6.68e-04 1.77e-09  2.06e-09   652s

Barrier performed 266 iterations in 652.24 seconds (181.63 work units)
Sub-optimal termination - objective 1.37012611e+03

/user/bnickson/GitHub/LUVex_TelAps/aplc_optimization/surveys/usort_offaxis_survey_N0128_telserv3/FPM40_IWA39/drivers/01_USORT_N128_FPM400M0150_IWA0390_OWA01400_C10_BW15_Nlam5_LS_IDc_ID0_OD_OD0_ls_90_ovsamp16_.py:102: DeprecationWarning: circular_aperture is deprecated. Its new name is make_circular_aperture.
  dark_zone_mask = circular_aperture(img_owa * 2)(focal_grid) - circular_aperture(img_iwa * 2)(focal_grid)
/user/bnickson/GitHub/LUVex_TelAps/aplc_optimization/surveys/usort_offaxis_survey_N0128_telserv3/FPM40_IWA39/drivers/01_USORT_N128_FPM400M0150_IWA0390_OWA01400_C10_BW15_Nlam5_LS_IDc_ID0_OD_OD0_ls_90_ovsamp16_.py:110: DeprecationWarning: circular_aperture is deprecated. Its new name is make_circular_aperture.
  focal_plane_mask = 1 - evaluate_supersampled(circular_aperture(2 * fpm_radius), focal_mask_grid, 8)
WARNING: VerifyWarning: Keyword name 'LS_ALIGN_TOl' is greater than 8 characters or contains characters not allowed by the FITS standard; a HIERARCH card will be created. [astropy.io.fits.card]
WARNING: VerifyWarning: Keyword name 'LS_NUM_STOPS' is greater than 8 characters or contains characters not allowed by the FITS standard; a HIERARCH card will be created. [astropy.io.fits.card]
WARNING: VerifyWarning: Keyword name 'PROG_START' is greater than 8 characters or contains characters not allowed by the FITS standard; a HIERARCH card will be created. [astropy.io.fits.card]
WARNING: VerifyWarning: Keyword name 'PROG_EDGE' is greater than 8 characters or contains characters not allowed by the FITS standard; a HIERARCH card will be created. [astropy.io.fits.card]
WARNING: VerifyWarning: Keyword name 'THRPT_ITER' is greater than 8 characters or contains characters not allowed by the FITS standard; a HIERARCH card will be created. [astropy.io.fits.card]
WARNING: VerifyWarning: Keyword name 'THRPT_ESTIM' is greater than 8 characters or contains characters not allowed by the FITS standard; a HIERARCH card will be created. [astropy.io.fits.card]
WARNING: VerifyWarning: Keyword name 'MAX_THRPT' is greater than 8 characters or contains characters not allowed by the FITS standard; a HIERARCH card will be created. [astropy.io.fits.card]
WARNING: VerifyWarning: Keyword name 'SLV_THRDS' is greater than 8 characters or contains characters not allowed by the FITS standard; a HIERARCH card will be created. [astropy.io.fits.card]
WARNING: VerifyWarning: Keyword name 'SLV_XOVER' is greater than 8 characters or contains characters not allowed by the FITS standard; a HIERARCH card will be created. [astropy.io.fits.card]
Optimization finished!
